100 4950
1 2 5
1 3 3
1 4 3
1 5 3
1 6 4
1 7 3
1 8 2
1 9 3
1 10 2
1 11 5
1 12 1
1 13 1
1 14 4
1 15 1
1 16 2
1 17 1
1 18 3
1 19 1
1 20 3
1 21 3
1 22 3
1 23 2
1 24 5
1 25 5
1 26 2
1 27 2
1 28 5
1 29 3
1 30 2
1 31 5
1 32 4
1 33 5
1 34 2
1 35 1
1 36 4
1 37 3
1 38 4
1 39 2
1 40 1
1 41 5
1 42 3
1 43 4
1 44 5
1 45 4
1 46 1
1 47 3
1 48 1
1 49 1
1 50 5
1 51 2
1 52 5
1 53 4
1 54 4
1 55 5
1 56 4
1 57 4
1 58 2
1 59 3
1 60 3
1 61 5
1 62 5
1 63 4
1 64 3
1 65 4
1 66 3
1 67 5
1 68 2
1 69 5
1 70 3
1 71 2
1 72 3
1 73 2
1 74 3
1 75 2
1 76 5
1 77 1
1 78 2
1 79 1
1 80 1
1 81 4
1 82 4
1 83 5
1 84 3
1 85 2
1 86 3
1 87 3
1 88 5
1 89 1
1 90 3
1 91 5
1 92 4
1 93 2
1 94 5
1 95 3
1 96 1
1 97 3
1 98 4
1 99 3
1 100 5
2 3 1
2 4 3
2 5 1
2 6 1
2 7 3
2 8 2
2 9 1
2 10 2
2 11 2
2 12 1
2 13 3
2 14 3
2 15 4
2 16 4
2 17 1
2 18 2
2 19 2
2 20 1
2 21 1
2 22 1
2 23 1
2 24 5
2 25 3
2 26 4
2 27 4
2 28 3
2 29 2
2 30 1
2 31 1
2 32 5
2 33 2
2 34 2
2 35 4
2 36 4
2 37 5
2 38 1
2 39 1
2 40 5
2 41 4
2 42 1
2 43 5
2 44 5
2 45 4
2 46 1
2 47 4
2 48 3
2 49 3
2 50 1
2 51 3
2 52 1
2 53 5
2 54 4
2 55 5
2 56 1
2 57 5
2 58 3
2 59 1
2 60 4
2 61 1
2 62 2
2 63 3
2 64 1
2 65 3
2 66 1
2 67 5
2 68 2
2 69 1
2 70 3
2 71 1
2 72 3
2 73 3
2 74 4
2 75 4
2 76 2
2 77 3
2 78 4
2 79 3
2 80 4
2 81 2
2 82 3
2 83 2
2 84 5
2 85 3
2 86 3
2 87 1
2 88 1
2 89 5
2 90 3
2 91 1
2 92 2
2 93 1
2 94 4
2 95 4
2 96 1
2 97 5
2 98 2
2 99 4
2 100 3
3 4 4
3 5 5
3 6 2
3 7 5
3 8 1
3 9 1
3 10 5
3 11 3
3 12 1
3 13 5
3 14 4
3 15 5
3 16 3
3 17 2
3 18 2
3 19 3
3 20 3
3 21 3
3 22 4
3 23 5
3 24 4
3 25 4
3 26 3
3 27 3
3 28 1
3 29 1
3 30 3
3 31 4
3 32 3
3 33 3
3 34 3
3 35 4
3 36 5
3 37 3
3 38 1
3 39 1
3 40 2
3 41 5
3 42 2
3 43 2
3 44 2
3 45 2
3 46 1
3 47 2
3 48 2
3 49 5
3 50 5
3 51 2
3 52 4
3 53 1
3 54 5
3 55 4
3 56 2
3 57 4
3 58 5
3 59 3
3 60 5
3 61 3
3 62 4
3 63 2
3 64 4
3 65 4
3 66 3
3 67 4
3 68 3
3 69 1
3 70 2
3 71 4
3 72 2
3 73 4
3 74 4
3 75 4
3 76 4
3 77 3
3 78 2
3 79 3
3 80 4
3 81 3
3 82 2
3 83 1
3 84 4
3 85 4
3 86 2
3 87 2
3 88 1
3 89 1
3 90 1
3 91 5
3 92 1
3 93 2
3 94 5
3 95 5
3 96 2
3 97 3
3 98 3
3 99 1
3 100 2
4 5 4
4 6 4
4 7 2
4 8 3
4 9 3
4 10 2
4 11 4
4 12 1
4 13 4
4 14 3
4 15 5
4 16 5
4 17 2
4 18 3
4 19 3
4 20 2
4 21 5
4 22 4
4 23 3
4 24 5
4 25 4
4 26 3
4 27 1
4 28 3
4 29 4
4 30 1
4 31 3
4 32 4
4 33 3
4 34 3
4 35 4
4 36 3
4 37 4
4 38 2
4 39 3
4 40 2
4 41 5
4 42 2
4 43 3
4 44 3
4 45 4
4 46 5
4 47 1
4 48 3
4 49 2
4 50 1
4 51 2
4 52 4
4 53 2
4 54 2
4 55 3
4 56 1
4 57 4
4 58 2
4 59 2
4 60 4
4 61 2
4 62 3
4 63 3
4 64 5
4 65 5
4 66 4
4 67 4
4 68 2
4 69 5
4 70 5
4 71 2
4 72 4
4 73 5
4 74 2
4 75 5
4 76 3
4 77 4
4 78 5
4 79 3
4 80 5
4 81 3
4 82 2
4 83 4
4 84 1
4 85 3
4 86 1
4 87 4
4 88 5
4 89 4
4 90 5
4 91 2
4 92 3
4 93 4
4 94 5
4 95 5
4 96 5
4 97 1
4 98 3
4 99 4
4 100 4
5 6 1
5 7 3
5 8 4
5 9 3
5 10 3
5 11 1
5 12 4
5 13 4
5 14 1
5 15 5
5 16 3
5 17 4
5 18 4
5 19 4
5 20 3
5 21 5
5 22 5
5 23 5
5 24 4
5 25 1
5 26 2
5 27 2
5 28 2
5 29 5
5 30 3
5 31 5
5 32 3
5 33 1
5 34 2
5 35 4
5 36 5
5 37 2
5 38 3
5 39 2
5 40 4
5 41 4
5 42 3
5 43 3
5 44 3
5 45 3
5 46 3
5 47 3
5 48 4
5 49 3
5 50 2
5 51 3
5 52 5
5 53 1
5 54 1
5 55 1
5 56 2
5 57 5
5 58 4
5 59 4
5 60 2
5 61 5
5 62 5
5 63 3
5 64 5
5 65 2
5 66 2
5 67 1
5 68 5
5 69 4
5 70 5
5 71 3
5 72 4
5 73 3
5 74 2
5 75 5
5 76 4
5 77 2
5 78 5
5 79 2
5 80 3
5 81 2
5 82 5
5 83 1
5 84 3
5 85 2
5 86 1
5 87 4
5 88 1
5 89 5
5 90 2
5 91 1
5 92 2
5 93 3
5 94 3
5 95 2
5 96 2
5 97 4
5 98 1
5 99 3
5 100 3
6 7 1
6 8 5
6 9 5
6 10 5
6 11 3
6 12 5
6 13 2
6 14 2
6 15 2
6 16 4
6 17 5
6 18 3
6 19 5
6 20 1
6 21 5
6 22 3
6 23 5
6 24 1
6 25 4
6 26 3
6 27 1
6 28 5
6 29 2
6 30 1
6 31 4
6 32 1
6 33 4
6 34 3
6 35 2
6 36 3
6 37 1
6 38 4
6 39 4
6 40 1
6 41 3
6 42 5
6 43 3
6 44 4
6 45 5
6 46 5
6 47 5
6 48 4
6 49 1
6 50 4
6 51 4
6 52 4
6 53 5
6 54 3
6 55 2
6 56 3
6 57 4
6 58 3
6 59 5
6 60 1
6 61 2
6 62 4
6 63 5
6 64 2
6 65 5
6 66 5
6 67 5
6 68 1
6 69 4
6 70 4
6 71 2
6 72 5
6 73 1
6 74 2
6 75 2
6 76 2
6 77 1
6 78 3
6 79 4
6 80 4
6 81 1
6 82 4
6 83 3
6 84 2
6 85 3
6 86 3
6 87 4
6 88 1
6 89 2
6 90 5
6 91 5
6 92 1
6 93 5
6 94 5
6 95 2
6 96 2
6 97 5
6 98 5
6 99 1
6 100 3
7 8 3
7 9 5
7 10 1
7 11 1
7 12 5
7 13 1
7 14 5
7 15 3
7 16 2
7 17 3
7 18 3
7 19 1
7 20 5
7 21 1
7 22 2
7 23 2
7 24 1
7 25 1
7 26 3
7 27 1
7 28 2
7 29 3
7 30 5
7 31 4
7 32 4
7 33 2
7 34 3
7 35 4
7 36 3
7 37 4
7 38 1
7 39 2
7 40 3
7 41 5
7 42 5
7 43 5
7 44 4
7 45 3
7 46 5
7 47 2
7 48 4
7 49 4
7 50 4
7 51 3
7 52 1
7 53 5
7 54 3
7 55 1
7 56 5
7 57 1
7 58 1
7 59 2
7 60 5
7 61 5
7 62 4
7 63 4
7 64 4
7 65 2
7 66 3
7 67 1
7 68 5
7 69 5
7 70 2
7 71 1
7 72 5
7 73 5
7 74 1
7 75 1
7 76 5
7 77 1
7 78 5
7 79 5
7 80 5
7 81 1
7 82 5
7 83 5
7 84 1
7 85 4
7 86 1
7 87 5
7 88 4
7 89 1
7 90 2
7 91 3
7 92 1
7 93 1
7 94 1
7 95 4
7 96 5
7 97 2
7 98 5
7 99 5
7 100 3
8 9 5
8 10 1
8 11 3
8 12 5
8 13 4
8 14 3
8 15 2
8 16 4
8 17 4
8 18 3
8 19 5
8 20 3
8 21 5
8 22 1
8 23 2
8 24 4
8 25 1
8 26 1
8 27 1
8 28 2
8 29 5
8 30 4
8 31 5
8 32 2
8 33 2
8 34 4
8 35 2
8 36 1
8 37 2
8 38 5
8 39 4
8 40 2
8 41 2
8 42 5
8 43 4
8 44 1
8 45 4
8 46 2
8 47 5
8 48 3
8 49 4
8 50 3
8 51 2
8 52 2
8 53 1
8 54 3
8 55 3
8 56 2
8 57 2
8 58 4
8 59 4
8 60 2
8 61 2
8 62 1
8 63 1
8 64 2
8 65 1
8 66 3
8 67 1
8 68 1
8 69 1
8 70 2
8 71 4
8 72 2
8 73 4
8 74 5
8 75 4
8 76 3
8 77 3
8 78 2
8 79 2
8 80 1
8 81 2
8 82 5
8 83 2
8 84 2
8 85 3
8 86 5
8 87 5
8 88 3
8 89 5
8 90 5
8 91 3
8 92 5
8 93 1
8 94 3
8 95 5
8 96 5
8 97 3
8 98 3
8 99 2
8 100 1
9 10 4
9 11 1
9 12 5
9 13 1
9 14 1
9 15 1
9 16 3
9 17 4
9 18 1
9 19 5
9 20 2
9 21 5
9 22 4
9 23 5
9 24 5
9 25 3
9 26 1
9 27 4
9 28 3
9 29 4
9 30 3
9 31 2
9 32 5
9 33 5
9 34 3
9 35 5
9 36 3
9 37 4
9 38 5
9 39 1
9 40 4
9 41 2
9 42 3
9 43 1
9 44 2
9 45 4
9 46 4
9 47 1
9 48 3
9 49 2
9 50 3
9 51 3
9 52 1
9 53 1
9 54 2
9 55 4
9 56 4
9 57 3
9 58 2
9 59 1
9 60 2
9 61 2
9 62 5
9 63 2
9 64 5
9 65 3
9 66 2
9 67 1
9 68 5
9 69 5
9 70 1
9 71 2
9 72 1
9 73 2
9 74 1
9 75 4
9 76 3
9 77 3
9 78 2
9 79 1
9 80 2
9 81 3
9 82 4
9 83 4
9 84 1
9 85 4
9 86 5
9 87 4
9 88 3
9 89 3
9 90 2
9 91 3
9 92 1
9 93 3
9 94 4
9 95 4
9 96 2
9 97 1
9 98 2
9 99 2
9 100 1
10 11 5
10 12 1
10 13 3
10 14 3
10 15 5
10 16 1
10 17 4
10 18 5
10 19 2
10 20 2
10 21 3
10 22 5
10 23 5
10 24 2
10 25 5
10 26 3
10 27 5
10 28 2
10 29 1
10 30 4
10 31 3
10 32 1
10 33 3
10 34 5
10 35 5
10 36 3
10 37 1
10 38 4
10 39 5
10 40 1
10 41 5
10 42 4
10 43 4
10 44 3
10 45 2
10 46 1
10 47 2
10 48 2
10 49 1
10 50 2
10 51 1
10 52 4
10 53 1
10 54 4
10 55 2
10 56 4
10 57 1
10 58 5
10 59 3
10 60 5
10 61 3
10 62 5
10 63 1
10 64 5
10 65 1
10 66 3
10 67 3
10 68 5
10 69 5
10 70 5
10 71 4
10 72 2
10 73 3
10 74 4
10 75 1
10 76 4
10 77 2
10 78 5
10 79 3
10 80 5
10 81 4
10 82 1
10 83 2
10 84 1
10 85 3
10 86 4
10 87 3
10 88 3
10 89 3
10 90 5
10 91 1
10 92 3
10 93 2
10 94 4
10 95 1
10 96 2
10 97 2
10 98 2
10 99 1
10 100 2
11 12 3
11 13 4
11 14 1
11 15 3
11 16 2
11 17 2
11 18 4
11 19 2
11 20 4
11 21 5
11 22 3
11 23 5
11 24 5
11 25 1
11 26 1
11 27 3
11 28 4
11 29 1
11 30 3
11 31 4
11 32 1
11 33 3
11 34 5
11 35 4
11 36 3
11 37 1
11 38 2
11 39 4
11 40 4
11 41 4
11 42 5
11 43 3
11 44 3
11 45 4
11 46 5
11 47 1
11 48 2
11 49 4
11 50 1
11 51 2
11 52 1
11 53 5
11 54 4
11 55 4
11 56 4
11 57 5
11 58 5
11 59 5
11 60 1
11 61 3
11 62 3
11 63 3
11 64 3
11 65 2
11 66 4
11 67 1
11 68 4
11 69 1
11 70 3
11 71 5
11 72 3
11 73 1
11 74 1
11 75 2
11 76 3
11 77 1
11 78 1
11 79 5
11 80 3
11 81 1
11 82 5
11 83 5
11 84 2
11 85 1
11 86 5
11 87 3
11 88 3
11 89 2
11 90 2
11 91 1
11 92 1
11 93 5
11 94 1
11 95 4
11 96 1
11 97 1
11 98 5
11 99 5
11 100 4
12 13 1
12 14 3
12 15 4
12 16 3
12 17 2
12 18 4
12 19 5
12 20 3
12 21 1
12 22 3
12 23 1
12 24 4
12 25 2
12 26 4
12 27 3
12 28 1
12 29 1
12 30 2
12 31 1
12 32 1
12 33 5
12 34 3
12 35 5
12 36 1
12 37 1
12 38 5
12 39 2
12 40 5
12 41 3
12 42 4
12 43 3
12 44 5
12 45 3
12 46 4
12 47 5
12 48 5
12 49 1
12 50 5
12 51 2
12 52 4
12 53 3
12 54 1
12 55 3
12 56 1
12 57 5
12 58 5
12 59 1
12 60 5
12 61 4
12 62 5
12 63 1
12 64 2
12 65 1
12 66 2
12 67 1
12 68 2
12 69 2
12 70 5
12 71 5
12 72 1
12 73 2
12 74 5
12 75 3
12 76 1
12 77 4
12 78 2
12 79 3
12 80 1
12 81 3
12 82 2
12 83 2
12 84 4
12 85 2
12 86 5
12 87 1
12 88 1
12 89 5
12 90 3
12 91 3
12 92 2
12 93 5
12 94 5
12 95 1
12 96 5
12 97 3
12 98 4
12 99 5
12 100 3
13 14 4
13 15 4
13 16 4
13 17 3
13 18 1
13 19 5
13 20 5
13 21 4
13 22 2
13 23 3
13 24 1
13 25 5
13 26 5
13 27 2
13 28 4
13 29 4
13 30 3
13 31 4
13 32 1
13 33 5
13 34 4
13 35 4
13 36 2
13 37 5
13 38 2
13 39 4
13 40 1
13 41 3
13 42 2
13 43 2
13 44 2
13 45 2
13 46 4
13 47 1
13 48 4
13 49 2
13 50 2
13 51 3
13 52 4
13 53 3
13 54 2
13 55 3
13 56 2
13 57 2
13 58 3
13 59 2
13 60 3
13 61 4
13 62 3
13 63 5
13 64 2
13 65 5
13 66 3
13 67 5
13 68 1
13 69 1
13 70 1
13 71 5
13 72 1
13 73 5
13 74 2
13 75 2
13 76 3
13 77 3
13 78 3
13 79 2
13 80 5
13 81 2
13 82 1
13 83 2
13 84 4
13 85 4
13 86 5
13 87 1
13 88 3
13 89 5
13 90 2
13 91 2
13 92 3
13 93 1
13 94 1
13 95 1
13 96 5
13 97 2
13 98 5
13 99 5
13 100 5
14 15 5
14 16 2
14 17 2
14 18 2
14 19 4
14 20 4
14 21 2
14 22 3
14 23 4
14 24 2
14 25 5
14 26 2
14 27 1
14 28 3
14 29 4
14 30 3
14 31 3
14 32 3
14 33 2
14 34 3
14 35 2
14 36 2
14 37 5
14 38 1
14 39 5
14 40 5
14 41 3
14 42 2
14 43 2
14 44 1
14 45 4
14 46 5
14 47 5
14 48 1
14 49 1
14 50 4
14 51 1
14 52 5
14 53 2
14 54 4
14 55 4
14 56 2
14 57 5
14 58 5
14 59 1
14 60 2
14 61 4
14 62 5
14 63 2
14 64 3
14 65 5
14 66 2
14 67 3
14 68 5
14 69 1
14 70 2
14 71 4
14 72 1
14 73 1
14 74 4
14 75 4
14 76 4
14 77 4
14 78 5
14 79 5
14 80 1
14 81 3
14 82 3
14 83 3
14 84 3
14 85 1
14 86 1
14 87 3
14 88 5
14 89 2
14 90 3
14 91 1
14 92 4
14 93 5
14 94 1
14 95 4
14 96 5
14 97 5
14 98 1
14 99 3
14 100 3
15 16 4
15 17 3
15 18 3
15 19 5
15 20 2
15 21 5
15 22 2
15 23 3
15 24 2
15 25 3
15 26 2
15 27 2
15 28 5
15 29 1
15 30 4
15 31 4
15 32 5
15 33 1
15 34 1
15 35 3
15 36 3
15 37 3
15 38 2
15 39 5
15 40 5
15 41 1
15 42 5
15 43 2
15 44 5
15 45 3
15 46 1
15 47 2
15 48 5
15 49 2
15 50 4
15 51 2
15 52 5
15 53 3
15 54 3
15 55 4
15 56 2
15 57 3
15 58 4
15 59 4
15 60 4
15 61 4
15 62 1
15 63 1
15 64 1
15 65 2
15 66 3
15 67 2
15 68 3
15 69 4
15 70 5
15 71 4
15 72 4
15 73 3
15 74 4
15 75 5
15 76 2
15 77 1
15 78 2
15 79 1
15 80 3
15 81 2
15 82 3
15 83 3
15 84 1
15 85 4
15 86 3
15 87 2
15 88 4
15 89 5
15 90 1
15 91 5
15 92 2
15 93 5
15 94 5
15 95 4
15 96 5
15 97 5
15 98 5
15 99 3
15 100 5
16 17 5
16 18 1
16 19 2
16 20 5
16 21 2
16 22 4
16 23 3
16 24 4
16 25 3
16 26 3
16 27 5
16 28 5
16 29 4
16 30 1
16 31 5
16 32 2
16 33 2
16 34 3
16 35 3
16 36 2
16 37 5
16 38 4
16 39 3
16 40 5
16 41 3
16 42 5
16 43 1
16 44 2
16 45 2
16 46 4
16 47 3
16 48 4
16 49 2
16 50 5
16 51 2
16 52 4
16 53 5
16 54 2
16 55 1
16 56 1
16 57 5
16 58 5
16 59 3
16 60 3
16 61 3
16 62 4
16 63 1
16 64 4
16 65 4
16 66 3
16 67 5
16 68 3
16 69 5
16 70 1
16 71 2
16 72 4
16 73 3
16 74 4
16 75 4
16 76 5
16 77 4
16 78 4
16 79 3
16 80 3
16 81 5
16 82 2
16 83 3
16 84 3
16 85 3
16 86 1
16 87 1
16 88 2
16 89 3
16 90 3
16 91 3
16 92 1
16 93 5
16 94 2
16 95 3
16 96 2
16 97 3
16 98 3
16 99 1
16 100 5
17 18 1
17 19 5
17 20 3
17 21 4
17 22 2
17 23 2
17 24 1
17 25 1
17 26 1
17 27 3
17 28 2
17 29 5
17 30 1
17 31 4
17 32 4
17 33 3
17 34 5
17 35 4
17 36 5
17 37 1
17 38 3
17 39 2
17 40 4
17 41 5
17 42 4
17 43 2
17 44 2
17 45 3
17 46 3
17 47 4
17 48 4
17 49 1
17 50 3
17 51 4
17 52 4
17 53 1
17 54 2
17 55 3
17 56 5
17 57 2
17 58 2
17 59 5
17 60 1
17 61 1
17 62 3
17 63 2
17 64 2
17 65 2
17 66 5
17 67 4
17 68 4
17 69 2
17 70 4
17 71 4
17 72 2
17 73 2
17 74 4
17 75 2
17 76 4
17 77 5
17 78 1
17 79 2
17 80 4
17 81 5
17 82 4
17 83 2
17 84 3
17 85 2
17 86 2
17 87 1
17 88 2
17 89 1
17 90 1
17 91 3
17 92 4
17 93 5
17 94 4
17 95 5
17 96 3
17 97 4
17 98 5
17 99 3
17 100 2
18 19 4
18 20 4
18 21 3
18 22 2
18 23 4
18 24 5
18 25 2
18 26 3
18 27 1
18 28 3
18 29 1
18 30 1
18 31 5
18 32 3
18 33 1
18 34 4
18 35 5
18 36 3
18 37 4
18 38 3
18 39 5
18 40 1
18 41 2
18 42 4
18 43 1
18 44 2
18 45 4
18 46 2
18 47 3
18 48 1
18 49 2
18 50 1
18 51 4
18 52 5
18 53 4
18 54 4
18 55 3
18 56 4
18 57 3
18 58 1
18 59 2
18 60 1
18 61 5
18 62 2
18 63 2
18 64 1
18 65 2
18 66 2
18 67 2
18 68 3
18 69 5
18 70 4
18 71 4
18 72 5
18 73 4
18 74 5
18 75 1
18 76 4
18 77 4
18 78 5
18 79 5
18 80 3
18 81 4
18 82 4
18 83 1
18 84 4
18 85 2
18 86 3
18 87 4
18 88 2
18 89 5
18 90 1
18 91 5
18 92 4
18 93 5
18 94 3
18 95 4
18 96 2
18 97 4
18 98 1
18 99 3
18 100 3
19 20 4
19 21 2
19 22 2
19 23 4
19 24 5
19 25 5
19 26 5
19 27 3
19 28 1
19 29 1
19 30 3
19 31 4
19 32 5
19 33 4
19 34 1
19 35 5
19 36 3
19 37 3
19 38 2
19 39 5
19 40 2
19 41 3
19 42 4
19 43 4
19 44 1
19 45 5
19 46 5
19 47 3
19 48 5
19 49 2
19 50 2
19 51 3
19 52 2
19 53 1
19 54 4
19 55 5
19 56 4
19 57 3
19 58 1
19 59 1
19 60 4
19 61 1
19 62 3
19 63 1
19 64 4
19 65 1
19 66 3
19 67 5
19 68 3
19 69 4
19 70 2
19 71 2
19 72 1
19 73 3
19 74 4
19 75 4
19 76 2
19 77 5
19 78 2
19 79 3
19 80 5
19 81 2
19 82 1
19 83 2
19 84 4
19 85 3
19 86 5
19 87 1
19 88 5
19 89 1
19 90 3
19 91 1
19 92 3
19 93 5
19 94 1
19 95 4
19 96 3
19 97 2
19 98 3
19 99 1
19 100 2
20 21 1
20 22 3
20 23 4
20 24 4
20 25 3
20 26 5
20 27 5
20 28 5
20 29 2
20 30 5
20 31 2
20 32 1
20 33 4
20 34 1
20 35 5
20 36 4
20 37 1
20 38 5
20 39 5
20 40 2
20 41 3
20 42 1
20 43 4
20 44 2
20 45 4
20 46 2
20 47 2
20 48 3
20 49 5
20 50 5
20 51 4
20 52 1
20 53 3
20 54 1
20 55 4
20 56 3
20 57 2
20 58 5
20 59 4
20 60 4
20 61 5
20 62 4
20 63 2
20 64 1
20 65 5
20 66 3
20 67 1
20 68 3
20 69 2
20 70 5
20 71 4
20 72 5
20 73 5
20 74 1
20 75 5
20 76 1
20 77 5
20 78 1
20 79 3
20 80 5
20 81 4
20 82 5
20 83 5
20 84 3
20 85 1
20 86 3
20 87 2
20 88 5
20 89 3
20 90 2
20 91 2
20 92 5
20 93 5
20 94 2
20 95 1
20 96 4
20 97 1
20 98 3
20 99 1
20 100 2
21 22 4
21 23 5
21 24 1
21 25 1
21 26 3
21 27 1
21 28 2
21 29 4
21 30 3
21 31 1
21 32 4
21 33 3
21 34 3
21 35 2
21 36 2
21 37 5
21 38 5
21 39 3
21 40 5
21 41 3
21 42 3
21 43 3
21 44 5
21 45 5
21 46 3
21 47 3
21 48 1
21 49 4
21 50 1
21 51 2
21 52 3
21 53 3
21 54 5
21 55 3
21 56 3
21 57 2
21 58 3
21 59 3
21 60 5
21 61 3
21 62 4
21 63 4
21 64 4
21 65 2
21 66 2
21 67 2
21 68 1
21 69 4
21 70 3
21 71 4
21 72 1
21 73 4
21 74 3
21 75 5
21 76 2
21 77 2
21 78 4
21 79 3
21 80 4
21 81 3
21 82 3
21 83 4
21 84 1
21 85 1
21 86 1
21 87 4
21 88 1
21 89 1
21 90 5
21 91 1
21 92 4
21 93 4
21 94 5
21 95 1
21 96 5
21 97 3
21 98 5
21 99 1
21 100 4
22 23 4
22 24 1
22 25 2
22 26 1
22 27 5
22 28 5
22 29 3
22 30 2
22 31 2
22 32 3
22 33 1
22 34 2
22 35 1
22 36 1
22 37 1
22 38 1
22 39 1
22 40 4
22 41 4
22 42 2
22 43 3
22 44 1
22 45 4
22 46 2
22 47 3
22 48 3
22 49 1
22 50 2
22 51 3
22 52 1
22 53 4
22 54 5
22 55 1
22 56 4
22 57 3
22 58 1
22 59 1
22 60 1
22 61 4
22 62 3
22 63 5
22 64 5
22 65 5
22 66 5
22 67 4
22 68 5
22 69 2
22 70 1
22 71 2
22 72 2
22 73 4
22 74 2
22 75 3
22 76 1
22 77 3
22 78 2
22 79 4
22 80 3
22 81 4
22 82 5
22 83 3
22 84 2
22 85 4
22 86 3
22 87 4
22 88 2
22 89 4
22 90 1
22 91 2
22 92 5
22 93 3
22 94 3
22 95 4
22 96 3
22 97 2
22 98 2
22 99 1
22 100 5
23 24 3
23 25 1
23 26 4
23 27 1
23 28 3
23 29 3
23 30 3
23 31 2
23 32 3
23 33 5
23 34 2
23 35 4
23 36 2
23 37 2
23 38 1
23 39 2
23 40 5
23 41 1
23 42 3
23 43 2
23 44 1
23 45 1
23 46 1
23 47 1
23 48 3
23 49 4
23 50 4
23 51 5
23 52 5
23 53 4
23 54 3
23 55 2
23 56 2
23 57 5
23 58 4
23 59 2
23 60 4
23 61 2
23 62 2
23 63 2
23 64 1
23 65 4
23 66 2
23 67 3
23 68 2
23 69 5
23 70 2
23 71 3
23 72 5
23 73 5
23 74 4
23 75 5
23 76 4
23 77 3
23 78 5
23 79 2
23 80 4
23 81 4
23 82 1
23 83 3
23 84 3
23 85 3
23 86 3
23 87 3
23 88 5
23 89 5
23 90 2
23 91 4
23 92 3
23 93 1
23 94 3
23 95 5
23 96 3
23 97 1
23 98 1
23 99 5
23 100 1
24 25 2
24 26 4
24 27 3
24 28 5
24 29 3
24 30 1
24 31 2
24 32 2
24 33 1
24 34 3
24 35 1
24 36 1
24 37 4
24 38 5
24 39 4
24 40 5
24 41 3
24 42 1
24 43 3
24 44 5
24 45 2
24 46 5
24 47 2
24 48 2
24 49 2
24 50 4
24 51 2
24 52 1
24 53 5
24 54 5
24 55 2
24 56 2
24 57 3
24 58 2
24 59 5
24 60 4
24 61 3
24 62 5
24 63 5
24 64 1
24 65 2
24 66 3
24 67 3
24 68 4
24 69 5
24 70 5
24 71 5
24 72 5
24 73 1
24 74 4
24 75 5
24 76 5
24 77 1
24 78 1
24 79 4
24 80 2
24 81 3
24 82 2
24 83 5
24 84 4
24 85 3
24 86 1
24 87 2
24 88 3
24 89 5
24 90 3
24 91 4
24 92 5
24 93 4
24 94 3
24 95 3
24 96 3
24 97 5
24 98 1
24 99 3
24 100 5
25 26 3
25 27 5
25 28 3
25 29 5
25 30 1
25 31 5
25 32 1
25 33 2
25 34 1
25 35 1
25 36 5
25 37 2
25 38 3
25 39 2
25 40 5
25 41 4
25 42 4
25 43 5
25 44 5
25 45 5
25 46 1
25 47 1
25 48 3
25 49 2
25 50 1
25 51 3
25 52 2
25 53 3
25 54 5
25 55 3
25 56 3
25 57 2
25 58 5
25 59 3
25 60 1
25 61 5
25 62 4
25 63 4
25 64 4
25 65 4
25 66 4
25 67 2
25 68 2
25 69 5
25 70 5
25 71 1
25 72 5
25 73 5
25 74 4
25 75 4
25 76 1
25 77 2
25 78 2
25 79 1
25 80 4
25 81 5
25 82 1
25 83 3
25 84 2
25 85 4
25 86 3
25 87 1
25 88 4
25 89 1
25 90 1
25 91 3
25 92 4
25 93 3
25 94 5
25 95 1
25 96 3
25 97 4
25 98 5
25 99 2
25 100 3
26 27 4
26 28 4
26 29 2
26 30 2
26 31 2
26 32 5
26 33 3
26 34 4
26 35 5
26 36 4
26 37 4
26 38 4
26 39 4
26 40 1
26 41 3
26 42 1
26 43 5
26 44 4
26 45 1
26 46 5
26 47 1
26 48 3
26 49 2
26 50 2
26 51 2
26 52 5
26 53 4
26 54 1
26 55 2
26 56 1
26 57 4
26 58 5
26 59 4
26 60 4
26 61 3
26 62 2
26 63 4
26 64 1
26 65 5
26 66 4
26 67 5
26 68 2
26 69 2
26 70 4
26 71 1
26 72 5
26 73 1
26 74 3
26 75 4
26 76 2
26 77 4
26 78 2
26 79 3
26 80 3
26 81 1
26 82 3
26 83 4
26 84 2
26 85 3
26 86 4
26 87 1
26 88 3
26 89 4
26 90 1
26 91 2
26 92 2
26 93 3
26 94 3
26 95 1
26 96 1
26 97 1
26 98 1
26 99 3
26 100 2
27 28 5
27 29 2
27 30 3
27 31 1
27 32 2
27 33 3
27 34 4
27 35 4
27 36 4
27 37 3
27 38 2
27 39 5
27 40 4
27 41 3
27 42 2
27 43 2
27 44 5
27 45 5
27 46 5
27 47 1
27 48 2
27 49 1
27 50 3
27 51 5
27 52 1
27 53 1
27 54 3
27 55 4
27 56 3
27 57 4
27 58 5
27 59 1
27 60 5
27 61 3
27 62 3
27 63 4
27 64 5
27 65 5
27 66 2
27 67 3
27 68 5
27 69 2
27 70 5
27 71 2
27 72 2
27 73 4
27 74 4
27 75 2
27 76 5
27 77 3
27 78 5
27 79 4
27 80 5
27 81 5
27 82 3
27 83 5
27 84 5
27 85 2
27 86 1
27 87 5
27 88 3
27 89 1
27 90 5
27 91 3
27 92 5
27 93 4
27 94 4
27 95 3
27 96 5
27 97 2
27 98 1
27 99 1
27 100 1
28 29 3
28 30 2
28 31 2
28 32 2
28 33 4
28 34 5
28 35 1
28 36 3
28 37 1
28 38 4
28 39 3
28 40 2
28 41 3
28 42 2
28 43 1
28 44 1
28 45 1
28 46 1
28 47 3
28 48 1
28 49 4
28 50 2
28 51 3
28 52 5
28 53 1
28 54 2
28 55 4
28 56 2
28 57 5
28 58 2
28 59 3
28 60 2
28 61 5
28 62 5
28 63 2
28 64 1
28 65 3
28 66 4
28 67 4
28 68 1
28 69 4
28 70 3
28 71 3
28 72 4
28 73 4
28 74 3
28 75 4
28 76 3
28 77 4
28 78 2
28 79 2
28 80 5
28 81 4
28 82 1
28 83 2
28 84 3
28 85 2
28 86 2
28 87 2
28 88 2
28 89 4
28 90 1
28 91 3
28 92 5
28 93 1
28 94 4
28 95 1
28 96 1
28 97 4
28 98 2
28 99 5
28 100 5
29 30 1
29 31 5
29 32 3
29 33 2
29 34 5
29 35 2
29 36 1
29 37 1
29 38 2
29 39 3
29 40 3
29 41 3
29 42 1
29 43 1
29 44 1
29 45 5
29 46 3
29 47 3
29 48 3
29 49 5
29 50 4
29 51 4
29 52 1
29 53 1
29 54 2
29 55 3
29 56 4
29 57 1
29 58 1
29 59 5
29 60 3
29 61 1
29 62 5
29 63 1
29 64 3
29 65 5
29 66 2
29 67 3
29 68 2
29 69 2
29 70 1
29 71 2
29 72 5
29 73 2
29 74 2
29 75 3
29 76 5
29 77 5
29 78 4
29 79 3
29 80 3
29 81 3
29 82 2
29 83 1
29 84 2
29 85 3
29 86 1
29 87 3
29 88 3
29 89 4
29 90 1
29 91 3
29 92 3
29 93 3
29 94 5
29 95 2
29 96 4
29 97 3
29 98 4
29 99 4
29 100 5
30 31 4
30 32 3
30 33 3
30 34 4
30 35 4
30 36 3
30 37 1
30 38 4
30 39 1
30 40 1
30 41 2
30 42 2
30 43 1
30 44 1
30 45 4
30 46 4
30 47 5
30 48 4
30 49 1
30 50 5
30 51 1
30 52 4
30 53 5
30 54 4
30 55 5
30 56 2
30 57 3
30 58 5
30 59 5
30 60 4
30 61 3
30 62 1
30 63 1
30 64 5
30 65 4
30 66 3
30 67 2
30 68 5
30 69 1
30 70 1
30 71 2
30 72 2
30 73 5
30 74 5
30 75 4
30 76 5
30 77 2
30 78 3
30 79 2
30 80 2
30 81 1
30 82 5
30 83 4
30 84 2
30 85 2
30 86 2
30 87 4
30 88 3
30 89 5
30 90 1
30 91 1
30 92 4
30 93 3
30 94 1
30 95 2
30 96 4
30 97 4
30 98 4
30 99 2
30 100 3
31 32 5
31 33 3
31 34 2
31 35 2
31 36 1
31 37 1
31 38 3
31 39 4
31 40 4
31 41 2
31 42 5
31 43 3
31 44 3
31 45 3
31 46 2
31 47 5
31 48 5
31 49 2
31 50 5
31 51 3
31 52 4
31 53 3
31 54 4
31 55 1
31 56 5
31 57 2
31 58 5
31 59 5
31 60 3
31 61 3
31 62 4
31 63 3
31 64 3
31 65 1
31 66 5
31 67 4
31 68 1
31 69 3
31 70 5
31 71 2
31 72 4
31 73 1
31 74 4
31 75 1
31 76 1
31 77 2
31 78 3
31 79 1
31 80 2
31 81 1
31 82 3
31 83 5
31 84 1
31 85 2
31 86 2
31 87 3
31 88 3
31 89 3
31 90 1
31 91 4
31 92 1
31 93 4
31 94 4
31 95 4
31 96 5
31 97 2
31 98 4
31 99 5
31 100 4
32 33 4
32 34 4
32 35 3
32 36 3
32 37 4
32 38 3
32 39 3
32 40 4
32 41 1
32 42 4
32 43 2
32 44 4
32 45 5
32 46 2
32 47 4
32 48 3
32 49 2
32 50 1
32 51 2
32 52 1
32 53 5
32 54 5
32 55 2
32 56 1
32 57 2
32 58 3
32 59 1
32 60 3
32 61 5
32 62 1
32 63 2
32 64 3
32 65 5
32 66 5
32 67 3
32 68 1
32 69 5
32 70 3
32 71 4
32 72 2
32 73 1
32 74 1
32 75 1
32 76 3
32 77 4
32 78 3
32 79 1
32 80 3
32 81 4
32 82 1
32 83 4
32 84 2
32 85 5
32 86 1
32 87 4
32 88 5
32 89 4
32 90 3
32 91 1
32 92 4
32 93 5
32 94 1
32 95 1
32 96 1
32 97 5
32 98 3
32 99 3
32 100 5
33 34 3
33 35 4
33 36 5
33 37 3
33 38 1
33 39 1
33 40 4
33 41 5
33 42 5
33 43 5
33 44 1
33 45 4
33 46 4
33 47 4
33 48 3
33 49 4
33 50 3
33 51 5
33 52 2
33 53 3
33 54 3
33 55 4
33 56 4
33 57 3
33 58 1
33 59 2
33 60 5
33 61 1
33 62 5
33 63 5
33 64 5
33 65 4
33 66 4
33 67 3
33 68 4
33 69 1
33 70 5
33 71 4
33 72 3
33 73 5
33 74 1
33 75 1
33 76 4
33 77 1
33 78 3
33 79 4
33 80 1
33 81 4
33 82 5
33 83 3
33 84 5
33 85 3
33 86 1
33 87 1
33 88 5
33 89 1
33 90 1
33 91 5
33 92 3
33 93 4
33 94 1
33 95 2
33 96 2
33 97 1
33 98 3
33 99 5
33 100 1
34 35 4
34 36 2
34 37 4
34 38 5
34 39 3
34 40 4
34 41 2
34 42 3
34 43 4
34 44 3
34 45 1
34 46 1
34 47 5
34 48 4
34 49 4
34 50 3
34 51 1
34 52 5
34 53 5
34 54 3
34 55 5
34 56 4
34 57 2
34 58 3
34 59 4
34 60 2
34 61 4
34 62 3
34 63 2
34 64 3
34 65 2
34 66 1
34 67 2
34 68 3
34 69 2
34 70 1
34 71 3
34 72 4
34 73 5
34 74 4
34 75 4
34 76 1
34 77 5
34 78 2
34 79 1
34 80 4
34 81 4
34 82 3
34 83 3
34 84 2
34 85 5
34 86 5
34 87 3
34 88 3
34 89 2
34 90 2
34 91 1
34 92 5
34 93 3
34 94 4
34 95 2
34 96 4
34 97 1
34 98 2
34 99 3
34 100 3
35 36 4
35 37 1
35 38 2
35 39 2
35 40 3
35 41 1
35 42 4
35 43 3
35 44 1
35 45 1
35 46 1
35 47 4
35 48 2
35 49 2
35 50 1
35 51 1
35 52 4
35 53 1
35 54 1
35 55 5
35 56 2
35 57 3
35 58 4
35 59 4
35 60 2
35 61 5
35 62 1
35 63 5
35 64 1
35 65 4
35 66 5
35 67 5
35 68 1
35 69 2
35 70 4
35 71 3
35 72 5
35 73 5
35 74 5
35 75 2
35 76 2
35 77 5
35 78 3
35 79 2
35 80 3
35 81 3
35 82 2
35 83 4
35 84 5
35 85 1
35 86 3
35 87 4
35 88 4
35 89 3
35 90 1
35 91 1
35 92 1
35 93 3
35 94 1
35 95 5
35 96 4
35 97 2
35 98 2
35 99 2
35 100 4
36 37 4
36 38 4
36 39 1
36 40 2
36 41 3
36 42 2
36 43 2
36 44 3
36 45 2
36 46 1
36 47 2
36 48 1
36 49 3
36 50 1
36 51 4
36 52 4
36 53 4
36 54 2
36 55 1
36 56 4
36 57 4
36 58 5
36 59 3
36 60 3
36 61 2
36 62 1
36 63 2
36 64 5
36 65 2
36 66 5
36 67 4
36 68 1
36 69 3
36 70 3
36 71 4
36 72 5
36 73 1
36 74 1
36 75 5
36 76 5
36 77 2
36 78 5
36 79 3
36 80 2
36 81 2
36 82 1
36 83 4
36 84 2
36 85 2
36 86 4
36 87 1
36 88 3
36 89 2
36 90 5
36 91 3
36 92 5
36 93 5
36 94 4
36 95 5
36 96 1
36 97 1
36 98 2
36 99 3
36 100 1
37 38 4
37 39 3
37 40 4
37 41 3
37 42 2
37 43 5
37 44 2
37 45 4
37 46 5
37 47 3
37 48 2
37 49 5
37 50 2
37 51 2
37 52 3
37 53 1
37 54 2
37 55 5
37 56 1
37 57 5
37 58 5
37 59 3
37 60 2
37 61 1
37 62 2
37 63 2
37 64 4
37 65 3
37 66 3
37 67 1
37 68 1
37 69 1
37 70 2
37 71 3
37 72 1
37 73 4
37 74 4
37 75 2
37 76 1
37 77 5
37 78 5
37 79 3
37 80 2
37 81 1
37 82 3
37 83 1
37 84 5
37 85 1
37 86 4
37 87 4
37 88 5
37 89 5
37 90 2
37 91 4
37 92 1
37 93 4
37 94 5
37 95 4
37 96 4
37 97 5
37 98 2
37 99 1
37 100 1
38 39 4
38 40 1
38 41 2
38 42 5
38 43 4
38 44 4
38 45 3
38 46 5
38 47 4
38 48 3
38 49 2
38 50 2
38 51 4
38 52 2
38 53 3
38 54 4
38 55 5
38 56 1
38 57 2
38 58 5
38 59 3
38 60 5
38 61 3
38 62 2
38 63 4
38 64 4
38 65 5
38 66 2
38 67 3
38 68 5
38 69 1
38 70 1
38 71 2
38 72 4
38 73 3
38 74 1
38 75 2
38 76 2
38 77 1
38 78 4
38 79 5
38 80 2
38 81 3
38 82 5
38 83 4
38 84 1
38 85 5
38 86 3
38 87 1
38 88 5
38 89 1
38 90 5
38 91 3
38 92 3
38 93 4
38 94 5
38 95 2
38 96 1
38 97 5
38 98 5
38 99 1
38 100 3
39 40 1
39 41 3
39 42 1
39 43 1
39 44 1
39 45 5
39 46 2
39 47 3
39 48 3
39 49 3
39 50 4
39 51 2
39 52 1
39 53 3
39 54 4
39 55 2
39 56 4
39 57 4
39 58 5
39 59 4
39 60 3
39 61 3
39 62 4
39 63 4
39 64 4
39 65 1
39 66 1
39 67 4
39 68 5
39 69 1
39 70 3
39 71 1
39 72 4
39 73 2
39 74 3
39 75 4
39 76 3
39 77 1
39 78 3
39 79 2
39 80 3
39 81 5
39 82 3
39 83 2
39 84 3
39 85 3
39 86 3
39 87 1
39 88 2
39 89 4
39 90 5
39 91 1
39 92 3
39 93 4
39 94 3
39 95 2
39 96 3
39 97 3
39 98 1
39 99 4
39 100 2
40 41 4
40 42 3
40 43 5
40 44 2
40 45 1
40 46 5
40 47 4
40 48 1
40 49 3
40 50 2
40 51 2
40 52 3
40 53 5
40 54 3
40 55 4
40 56 2
40 57 4
40 58 5
40 59 4
40 60 3
40 61 3
40 62 1
40 63 4
40 64 5
40 65 3
40 66 3
40 67 2
40 68 2
40 69 4
40 70 4
40 71 1
40 72 3
40 73 3
40 74 3
40 75 3
40 76 3
40 77 2
40 78 2
40 79 2
40 80 3
40 81 1
40 82 5
40 83 4
40 84 1
40 85 4
40 86 3
40 87 1
40 88 5
40 89 2
40 90 4
40 91 5
40 92 5
40 93 2
40 94 3
40 95 2
40 96 1
40 97 3
40 98 2
40 99 3
40 100 4
41 42 5
41 43 5
41 44 5
41 45 4
41 46 2
41 47 2
41 48 2
41 49 3
41 50 3
41 51 2
41 52 4
41 53 1
41 54 4
41 55 5
41 56 4
41 57 5
41 58 5
41 59 1
41 60 1
41 61 2
41 62 2
41 63 5
41 64 4
41 65 1
41 66 2
41 67 3
41 68 2
41 69 4
41 70 2
41 71 2
41 72 1
41 73 1
41 74 4
41 75 2
41 76 2
41 77 1
41 78 4
41 79 5
41 80 5
41 81 4
41 82 1
41 83 1
41 84 4
41 85 5
41 86 4
41 87 1
41 88 2
41 89 1
41 90 2
41 91 4
41 92 1
41 93 1
41 94 1
41 95 3
41 96 1
41 97 3
41 98 3
41 99 5
41 100 1
42 43 3
42 44 3
42 45 4
42 46 5
42 47 3
42 48 1
42 49 1
42 50 2
42 51 3
42 52 4
42 53 5
42 54 2
42 55 1
42 56 1
42 57 2
42 58 3
42 59 5
42 60 2
42 61 2
42 62 2
42 63 2
42 64 3
42 65 5
42 66 1
42 67 2
42 68 5
42 69 3
42 70 4
42 71 4
42 72 3
42 73 2
42 74 1
42 75 3
42 76 3
42 77 4
42 78 5
42 79 4
42 80 5
42 81 2
42 82 4
42 83 1
42 84 1
42 85 5
42 86 1
42 87 4
42 88 5
42 89 5
42 90 5
42 91 3
42 92 3
42 93 1
42 94 2
42 95 5
42 96 2
42 97 1
42 98 1
42 99 4
42 100 1
43 44 1
43 45 2
43 46 3
43 47 2
43 48 5
43 49 3
43 50 2
43 51 2
43 52 4
43 53 1
43 54 1
43 55 1
43 56 2
43 57 4
43 58 2
43 59 5
43 60 1
43 61 5
43 62 4
43 63 1
43 64 2
43 65 3
43 66 2
43 67 3
43 68 2
43 69 3
43 70 1
43 71 5
43 72 2
43 73 3
43 74 4
43 75 5
43 76 1
43 77 5
43 78 3
43 79 2
43 80 5
43 81 2
43 82 5
43 83 2
43 84 1
43 85 4
43 86 5
43 87 3
43 88 2
43 89 5
43 90 4
43 91 2
43 92 5
43 93 1
43 94 1
43 95 2
43 96 1
43 97 5
43 98 4
43 99 1
43 100 3
44 45 2
44 46 3
44 47 5
44 48 3
44 49 3
44 50 1
44 51 3
44 52 4
44 53 3
44 54 1
44 55 1
44 56 2
44 57 4
44 58 4
44 59 4
44 60 1
44 61 4
44 62 3
44 63 3
44 64 3
44 65 2
44 66 3
44 67 1
44 68 4
44 69 2
44 70 5
44 71 5
44 72 5
44 73 2
44 74 1
44 75 5
44 76 1
44 77 5
44 78 2
44 79 1
44 80 3
44 81 1
44 82 3
44 83 1
44 84 5
44 85 3
44 86 3
44 87 3
44 88 1
44 89 1
44 90 2
44 91 5
44 92 1
44 93 4
44 94 5
44 95 3
44 96 4
44 97 2
44 98 1
44 99 2
44 100 3
45 46 5
45 47 4
45 48 3
45 49 5
45 50 1
45 51 4
45 52 2
45 53 1
45 54 5
45 55 1
45 56 1
45 57 1
45 58 4
45 59 1
45 60 3
45 61 3
45 62 3
45 63 1
45 64 3
45 65 3
45 66 5
45 67 1
45 68 1
45 69 3
45 70 5
45 71 2
45 72 2
45 73 2
45 74 4
45 75 3
45 76 2
45 77 4
45 78 4
45 79 3
45 80 1
45 81 5
45 82 4
45 83 5
45 84 4
45 85 4
45 86 1
45 87 1
45 88 4
45 89 1
45 90 2
45 91 5
45 92 4
45 93 4
45 94 5
45 95 5
45 96 3
45 97 1
45 98 4
45 99 2
45 100 2
46 47 4
46 48 3
46 49 5
46 50 1
46 51 3
46 52 5
46 53 3
46 54 3
46 55 5
46 56 5
46 57 2
46 58 3
46 59 4
46 60 1
46 61 2
46 62 2
46 63 4
46 64 4
46 65 1
46 66 1
46 67 3
46 68 2
46 69 4
46 70 5
46 71 4
46 72 4
46 73 2
46 74 4
46 75 5
46 76 3
46 77 2
46 78 2
46 79 5
46 80 3
46 81 1
46 82 1
46 83 1
46 84 4
46 85 1
46 86 1
46 87 2
46 88 4
46 89 1
46 90 3
46 91 5
46 92 4
46 93 1
46 94 1
46 95 2
46 96 5
46 97 2
46 98 4
46 99 2
46 100 2
47 48 2
47 49 2
47 50 1
47 51 4
47 52 2
47 53 1
47 54 2
47 55 2
47 56 5
47 57 2
47 58 1
47 59 2
47 60 2
47 61 4
47 62 3
47 63 1
47 64 5
47 65 2
47 66 3
47 67 5
47 68 1
47 69 3
47 70 5
47 71 5
47 72 4
47 73 5
47 74 5
47 75 2
47 76 3
47 77 3
47 78 4
47 79 3
47 80 5
47 81 4
47 82 3
47 83 5
47 84 4
47 85 2
47 86 3
47 87 2
47 88 5
47 89 1
47 90 2
47 91 4
47 92 2
47 93 2
47 94 3
47 95 5
47 96 5
47 97 5
47 98 2
47 99 5
47 100 4
48 49 3
48 50 2
48 51 5
48 52 5
48 53 1
48 54 1
48 55 4
48 56 1
48 57 3
48 58 3
48 59 2
48 60 2
48 61 3
48 62 1
48 63 5
48 64 3
48 65 5
48 66 5
48 67 5
48 68 5
48 69 3
48 70 4
48 71 4
48 72 4
48 73 3
48 74 2
48 75 3
48 76 3
48 77 1
48 78 2
48 79 5
48 80 4
48 81 2
48 82 2
48 83 3
48 84 4
48 85 1
48 86 5
48 87 5
48 88 1
48 89 3
48 90 2
48 91 5
48 92 1
48 93 2
48 94 5
48 95 3
48 96 1
48 97 2
48 98 5
48 99 2
48 100 4
49 50 4
49 51 5
49 52 5
49 53 4
49 54 2
49 55 3
49 56 5
49 57 2
49 58 2
49 59 2
49 60 5
49 61 1
49 62 3
49 63 1
49 64 3
49 65 2
49 66 4
49 67 1
49 68 5
49 69 1
49 70 5
49 71 1
49 72 4
49 73 2
49 74 1
49 75 4
49 76 1
49 77 5
49 78 4
49 79 4
49 80 5
49 81 3
49 82 4
49 83 4
49 84 1
49 85 4
49 86 4
49 87 1
49 88 1
49 89 5
49 90 4
49 91 5
49 92 2
49 93 5
49 94 2
49 95 5
49 96 2
49 97 3
49 98 4
49 99 5
49 100 3
50 51 3
50 52 4
50 53 1
50 54 3
50 55 2
50 56 1
50 57 5
50 58 5
50 59 3
50 60 5
50 61 3
50 62 4
50 63 2
50 64 4
50 65 2
50 66 3
50 67 5
50 68 1
50 69 4
50 70 1
50 71 1
50 72 5
50 73 2
50 74 2
50 75 1
50 76 2
50 77 1
50 78 5
50 79 2
50 80 2
50 81 4
50 82 5
50 83 3
50 84 1
50 85 1
50 86 3
50 87 3
50 88 2
50 89 3
50 90 4
50 91 5
50 92 3
50 93 5
50 94 5
50 95 3
50 96 4
50 97 2
50 98 2
50 99 4
50 100 2
51 52 5
51 53 5
51 54 1
51 55 4
51 56 3
51 57 5
51 58 3
51 59 3
51 60 4
51 61 3
51 62 5
51 63 4
51 64 1
51 65 4
51 66 1
51 67 3
51 68 5
51 69 3
51 70 5
51 71 1
51 72 5
51 73 1
51 74 2
51 75 2
51 76 3
51 77 5
51 78 3
51 79 5
51 80 2
51 81 3
51 82 1
51 83 3
51 84 1
51 85 2
51 86 2
51 87 1
51 88 2
51 89 1
51 90 3
51 91 1
51 92 5
51 93 5
51 94 3
51 95 4
51 96 3
51 97 3
51 98 4
51 99 4
51 100 1
52 53 2
52 54 2
52 55 4
52 56 5
52 57 2
52 58 1
52 59 4
52 60 3
52 61 5
52 62 1
52 63 3
52 64 4
52 65 1
52 66 2
52 67 3
52 68 5
52 69 5
52 70 4
52 71 4
52 72 2
52 73 2
52 74 4
52 75 3
52 76 2
52 77 4
52 78 5
52 79 5
52 80 5
52 81 4
52 82 2
52 83 5
52 84 2
52 85 1
52 86 1
52 87 3
52 88 5
52 89 4
52 90 2
52 91 2
52 92 3
52 93 5
52 94 2
52 95 4
52 96 2
52 97 5
52 98 4
52 99 2
52 100 5
53 54 5
53 55 5
53 56 4
53 57 1
53 58 1
53 59 2
53 60 1
53 61 3
53 62 1
53 63 4
53 64 1
53 65 1
53 66 3
53 67 3
53 68 5
53 69 4
53 70 1
53 71 3
53 72 1
53 73 4
53 74 4
53 75 1
53 76 5
53 77 1
53 78 5
53 79 3
53 80 4
53 81 5
53 82 5
53 83 4
53 84 1
53 85 4
53 86 5
53 87 2
53 88 3
53 89 2
53 90 1
53 91 1
53 92 3
53 93 2
53 94 1
53 95 4
53 96 2
53 97 2
53 98 3
53 99 5
53 100 1
54 55 2
54 56 2
54 57 3
54 58 2
54 59 2
54 60 2
54 61 5
54 62 1
54 63 3
54 64 3
54 65 2
54 66 5
54 67 2
54 68 5
54 69 2
54 70 1
54 71 2
54 72 1
54 73 1
54 74 4
54 75 5
54 76 3
54 77 4
54 78 2
54 79 3
54 80 5
54 81 5
54 82 1
54 83 2
54 84 4
54 85 4
54 86 4
54 87 2
54 88 4
54 89 4
54 90 4
54 91 3
54 92 4
54 93 3
54 94 2
54 95 5
54 96 1
54 97 2
54 98 4
54 99 1
54 100 3
55 56 1
55 57 1
55 58 2
55 59 2
55 60 5
55 61 3
55 62 1
55 63 1
55 64 5
55 65 3
55 66 2
55 67 4
55 68 5
55 69 3
55 70 3
55 71 4
55 72 4
55 73 1
55 74 4
55 75 3
55 76 5
55 77 1
55 78 5
55 79 4
55 80 1
55 81 4
55 82 3
55 83 5
55 84 1
55 85 4
55 86 5
55 87 3
55 88 2
55 89 5
55 90 1
55 91 4
55 92 4
55 93 2
55 94 1
55 95 2
55 96 3
55 97 2
55 98 3
55 99 5
55 100 4
56 57 5
56 58 1
56 59 4
56 60 5
56 61 2
56 62 4
56 63 4
56 64 3
56 65 2
56 66 5
56 67 2
56 68 5
56 69 5
56 70 3
56 71 1
56 72 3
56 73 2
56 74 3
56 75 5
56 76 1
56 77 1
56 78 4
56 79 3
56 80 5
56 81 1
56 82 1
56 83 1
56 84 2
56 85 1
56 86 2
56 87 4
56 88 2
56 89 1
56 90 5
56 91 3
56 92 3
56 93 2
56 94 5
56 95 4
56 96 4
56 97 4
56 98 4
56 99 2
56 100 1
57 58 5
57 59 3
57 60 4
57 61 2
57 62 3
57 63 5
57 64 4
57 65 1
57 66 3
57 67 2
57 68 3
57 69 5
57 70 5
57 71 1
57 72 2
57 73 3
57 74 1
57 75 2
57 76 4
57 77 1
57 78 3
57 79 3
57 80 5
57 81 3
57 82 2
57 83 4
57 84 3
57 85 1
57 86 2
57 87 2
57 88 2
57 89 4
57 90 1
57 91 3
57 92 5
57 93 2
57 94 3
57 95 5
57 96 4
57 97 2
57 98 4
57 99 4
57 100 1
58 59 2
58 60 2
58 61 5
58 62 4
58 63 3
58 64 1
58 65 5
58 66 3
58 67 5
58 68 3
58 69 2
58 70 2
58 71 3
58 72 2
58 73 3
58 74 1
58 75 1
58 76 2
58 77 5
58 78 1
58 79 3
58 80 5
58 81 4
58 82 4
58 83 4
58 84 3
58 85 5
58 86 1
58 87 1
58 88 2
58 89 3
58 90 1
58 91 4
58 92 5
58 93 3
58 94 1
58 95 1
58 96 3
58 97 3
58 98 2
58 99 4
58 100 3
59 60 5
59 61 4
59 62 5
59 63 1
59 64 3
59 65 1
59 66 1
59 67 3
59 68 1
59 69 2
59 70 4
59 71 5
59 72 2
59 73 1
59 74 2
59 75 5
59 76 3
59 77 5
59 78 2
59 79 1
59 80 1
59 81 3
59 82 5
59 83 3
59 84 2
59 85 1
59 86 5
59 87 4
59 88 2
59 89 5
59 90 3
59 91 1
59 92 4
59 93 4
59 94 5
59 95 5
59 96 1
59 97 2
59 98 2
59 99 1
59 100 5
60 61 1
60 62 1
60 63 1
60 64 1
60 65 1
60 66 2
60 67 3
60 68 4
60 69 1
60 70 4
60 71 4
60 72 2
60 73 1
60 74 4
60 75 3
60 76 5
60 77 1
60 78 5
60 79 1
60 80 2
60 81 5
60 82 2
60 83 4
60 84 5
60 85 1
60 86 4
60 87 5
60 88 3
60 89 1
60 90 5
60 91 3
60 92 1
60 93 2
60 94 2
60 95 4
60 96 2
60 97 5
60 98 2
60 99 3
60 100 5
61 62 3
61 63 4
61 64 1
61 65 5
61 66 4
61 67 4
61 68 5
61 69 4
61 70 2
61 71 2
61 72 2
61 73 2
61 74 4
61 75 1
61 76 3
61 77 5
61 78 2
61 79 3
61 80 4
61 81 4
61 82 1
61 83 5
61 84 4
61 85 2
61 86 4
61 87 4
61 88 5
61 89 1
61 90 2
61 91 4
61 92 4
61 93 1
61 94 3
61 95 1
61 96 3
61 97 3
61 98 4
61 99 2
61 100 2
62 63 4
62 64 1
62 65 3
62 66 1
62 67 1
62 68 2
62 69 5
62 70 3
62 71 4
62 72 1
62 73 2
62 74 1
62 75 2
62 76 2
62 77 4
62 78 2
62 79 4
62 80 1
62 81 5
62 82 5
62 83 4
62 84 3
62 85 3
62 86 3
62 87 1
62 88 3
62 89 4
62 90 2
62 91 1
62 92 4
62 93 1
62 94 2
62 95 3
62 96 1
62 97 5
62 98 4
62 99 2
62 100 4
63 64 2
63 65 4
63 66 3
63 67 3
63 68 1
63 69 2
63 70 1
63 71 3
63 72 1
63 73 2
63 74 3
63 75 2
63 76 2
63 77 1
63 78 2
63 79 1
63 80 3
63 81 1
63 82 1
63 83 5
63 84 4
63 85 5
63 86 4
63 87 4
63 88 5
63 89 5
63 90 3
63 91 2
63 92 5
63 93 2
63 94 1
63 95 5
63 96 5
63 97 2
63 98 2
63 99 5
63 100 3
64 65 3
64 66 3
64 67 5
64 68 3
64 69 5
64 70 4
64 71 2
64 72 2
64 73 2
64 74 2
64 75 3
64 76 5
64 77 1
64 78 4
64 79 4
64 80 1
64 81 5
64 82 2
64 83 4
64 84 1
64 85 3
64 86 3
64 87 2
64 88 2
64 89 4
64 90 4
64 91 3
64 92 1
64 93 1
64 94 1
64 95 2
64 96 2
64 97 5
64 98 5
64 99 2
64 100 1
65 66 4
65 67 5
65 68 4
65 69 4
65 70 5
65 71 4
65 72 3
65 73 3
65 74 1
65 75 3
65 76 3
65 77 4
65 78 2
65 79 2
65 80 3
65 81 1
65 82 4
65 83 1
65 84 2
65 85 1
65 86 3
65 87 4
65 88 5
65 89 5
65 90 3
65 91 2
65 92 2
65 93 2
65 94 4
65 95 4
65 96 5
65 97 3
65 98 5
65 99 3
65 100 3
66 67 2
66 68 5
66 69 5
66 70 1
66 71 1
66 72 1
66 73 5
66 74 1
66 75 4
66 76 3
66 77 5
66 78 3
66 79 4
66 80 3
66 81 3
66 82 2
66 83 5
66 84 2
66 85 1
66 86 5
66 87 1
66 88 5
66 89 1
66 90 2
66 91 1
66 92 2
66 93 2
66 94 1
66 95 4
66 96 3
66 97 2
66 98 5
66 99 1
66 100 1
67 68 4
67 69 4
67 70 3
67 71 4
67 72 4
67 73 1
67 74 2
67 75 4
67 76 5
67 77 3
67 78 4
67 79 1
67 80 2
67 81 2
67 82 2
67 83 4
67 84 4
67 85 4
67 86 1
67 87 3
67 88 2
67 89 1
67 90 3
67 91 4
67 92 4
67 93 1
67 94 4
67 95 5
67 96 2
67 97 5
67 98 4
67 99 1
67 100 4
68 69 2
68 70 1
68 71 2
68 72 3
68 73 4
68 74 1
68 75 1
68 76 5
68 77 4
68 78 5
68 79 3
68 80 4
68 81 4
68 82 2
68 83 2
68 84 2
68 85 1
68 86 3
68 87 5
68 88 4
68 89 4
68 90 2
68 91 3
68 92 5
68 93 1
68 94 2
68 95 3
68 96 4
68 97 3
68 98 2
68 99 2
68 100 3
69 70 3
69 71 5
69 72 4
69 73 2
69 74 2
69 75 4
69 76 5
69 77 3
69 78 1
69 79 5
69 80 3
69 81 4
69 82 5
69 83 4
69 84 3
69 85 5
69 86 2
69 87 1
69 88 2
69 89 3
69 90 4
69 91 1
69 92 5
69 93 1
69 94 1
69 95 5
69 96 4
69 97 5
69 98 3
69 99 3
69 100 2
70 71 3
70 72 5
70 73 2
70 74 2
70 75 1
70 76 5
70 77 5
70 78 3
70 79 1
70 80 3
70 81 2
70 82 1
70 83 2
70 84 5
70 85 1
70 86 5
70 87 1
70 88 2
70 89 2
70 90 2
70 91 1
70 92 5
70 93 5
70 94 5
70 95 1
70 96 2
70 97 4
70 98 5
70 99 5
70 100 4
71 72 3
71 73 2
71 74 4
71 75 4
71 76 1
71 77 5
71 78 3
71 79 5
71 80 3
71 81 2
71 82 3
71 83 2
71 84 1
71 85 3
71 86 1
71 87 2
71 88 1
71 89 4
71 90 4
71 91 2
71 92 4
71 93 2
71 94 5
71 95 1
71 96 2
71 97 2
71 98 5
71 99 5
71 100 4
72 73 2
72 74 1
72 75 5
72 76 3
72 77 4
72 78 3
72 79 1
72 80 2
72 81 3
72 82 2
72 83 5
72 84 5
72 85 2
72 86 2
72 87 2
72 88 3
72 89 2
72 90 2
72 91 3
72 92 4
72 93 4
72 94 3
72 95 4
72 96 2
72 97 4
72 98 1
72 99 4
72 100 1
73 74 4
73 75 1
73 76 1
73 77 1
73 78 3
73 79 1
73 80 4
73 81 5
73 82 1
73 83 1
73 84 5
73 85 4
73 86 5
73 87 2
73 88 1
73 89 1
73 90 4
73 91 4
73 92 3
73 93 2
73 94 5
73 95 3
73 96 5
73 97 3
73 98 5
73 99 4
73 100 2
74 75 2
74 76 5
74 77 3
74 78 5
74 79 2
74 80 3
74 81 3
74 82 5
74 83 1
74 84 3
74 85 2
74 86 3
74 87 2
74 88 4
74 89 3
74 90 5
74 91 2
74 92 1
74 93 2
74 94 2
74 95 4
74 96 5
74 97 1
74 98 1
74 99 5
74 100 1
75 76 1
75 77 1
75 78 5
75 79 5
75 80 3
75 81 3
75 82 1
75 83 2
75 84 5
75 85 1
75 86 1
75 87 2
75 88 1
75 89 3
75 90 4
75 91 5
75 92 1
75 93 2
75 94 4
75 95 5
75 96 3
75 97 5
75 98 5
75 99 3
75 100 2
76 77 5
76 78 2
76 79 3
76 80 4
76 81 1
76 82 4
76 83 2
76 84 3
76 85 5
76 86 2
76 87 3
76 88 3
76 89 3
76 90 5
76 91 1
76 92 3
76 93 2
76 94 5
76 95 5
76 96 4
76 97 4
76 98 5
76 99 2
76 100 2
77 78 5
77 79 4
77 80 4
77 81 2
77 82 2
77 83 5
77 84 4
77 85 2
77 86 1
77 87 2
77 88 2
77 89 2
77 90 2
77 91 1
77 92 3
77 93 5
77 94 5
77 95 4
77 96 1
77 97 2
77 98 1
77 99 5
77 100 2
78 79 3
78 80 3
78 81 5
78 82 2
78 83 2
78 84 5
78 85 3
78 86 4
78 87 1
78 88 2
78 89 4
78 90 4
78 91 3
78 92 1
78 93 4
78 94 5
78 95 1
78 96 5
78 97 3
78 98 4
78 99 3
78 100 4
79 80 2
79 81 3
79 82 4
79 83 2
79 84 4
79 85 2
79 86 4
79 87 2
79 88 4
79 89 5
79 90 5
79 91 3
79 92 2
79 93 4
79 94 4
79 95 2
79 96 2
79 97 3
79 98 2
79 99 4
79 100 4
80 81 3
80 82 4
80 83 4
80 84 5
80 85 5
80 86 3
80 87 1
80 88 4
80 89 5
80 90 3
80 91 4
80 92 5
80 93 4
80 94 5
80 95 2
80 96 1
80 97 1
80 98 3
80 99 1
80 100 2
81 82 1
81 83 2
81 84 3
81 85 4
81 86 2
81 87 5
81 88 5
81 89 5
81 90 4
81 91 3
81 92 1
81 93 2
81 94 1
81 95 4
81 96 5
81 97 2
81 98 3
81 99 2
81 100 4
82 83 3
82 84 4
82 85 4
82 86 3
82 87 4
82 88 2
82 89 2
82 90 3
82 91 5
82 92 4
82 93 5
82 94 4
82 95 5
82 96 2
82 97 5
82 98 2
82 99 3
82 100 1
83 84 2
83 85 3
83 86 4
83 87 2
83 88 4
83 89 4
83 90 4
83 91 3
83 92 2
83 93 5
83 94 2
83 95 2
83 96 4
83 97 5
83 98 5
83 99 4
83 100 4
84 85 5
84 86 1
84 87 2
84 88 4
84 89 5
84 90 2
84 91 1
84 92 5
84 93 5
84 94 2
84 95 1
84 96 3
84 97 4
84 98 2
84 99 4
84 100 3
85 86 2
85 87 4
85 88 3
85 89 4
85 90 1
85 91 4
85 92 2
85 93 3
85 94 4
85 95 5
85 96 2
85 97 2
85 98 3
85 99 1
85 100 3
86 87 2
86 88 5
86 89 2
86 90 4
86 91 2
86 92 1
86 93 3
86 94 3
86 95 3
86 96 4
86 97 3
86 98 2
86 99 2
86 100 4
87 88 2
87 89 4
87 90 5
87 91 4
87 92 2
87 93 3
87 94 4
87 95 2
87 96 3
87 97 4
87 98 4
87 99 5
87 100 1
88 89 1
88 90 5
88 91 4
88 92 2
88 93 5
88 94 2
88 95 1
88 96 5
88 97 1
88 98 2
88 99 3
88 100 5
89 90 5
89 91 5
89 92 1
89 93 1
89 94 2
89 95 2
89 96 2
89 97 5
89 98 4
89 99 2
89 100 3
90 91 1
90 92 3
90 93 4
90 94 2
90 95 1
90 96 3
90 97 1
90 98 2
90 99 5
90 100 5
91 92 4
91 93 3
91 94 2
91 95 4
91 96 5
91 97 3
91 98 2
91 99 1
91 100 4
92 93 4
92 94 5
92 95 4
92 96 3
92 97 4
92 98 4
92 99 4
92 100 4
93 94 5
93 95 1
93 96 2
93 97 4
93 98 4
93 99 2
93 100 5
94 95 2
94 96 1
94 97 4
94 98 1
94 99 5
94 100 3
95 96 5
95 97 4
95 98 4
95 99 1
95 100 2
96 97 3
96 98 4
96 99 5
96 100 2
97 98 5
97 99 5
97 100 1
98 99 1
98 100 3
99 100 3
